(set-logic QF_S)
(declare-fun var0 () String)
(assert (RegexIn var0 (RegexConcat (RegexUnion (RegexPlus (Str2Reg "0")) (RegexPlus (Str2Reg "111"))) (RegexConcat (RegexPlus (RegexPlus (Str2Reg "2"))) (RegexConcat (RegexStar (RegexStar (Str2Reg "3"))) (RegexConcat (RegexPlus (RegexStar (Str2Reg "444"))) (RegexConcat (RegexStar (RegexPlus (Str2Reg "5"))) (RegexConcat (RegexPlus (RegexUnion (Str2Reg "66") (Str2Reg "7"))) (RegexConcat (RegexPlus (RegexUnion (Str2Reg "8") (Str2Reg "9"))) (RegexConcat (RegexPlus (RegexPlus (Str2Reg "aaa"))) (RegexConcat (RegexStar (RegexPlus (Str2Reg "bb"))) (RegexConcat (RegexUnion (RegexPlus (Str2Reg "cc")) (RegexPlus (Str2Reg "ddd"))) (RegexConcat (RegexUnion (RegexUnion (Str2Reg "ee") (Str2Reg "ff")) (RegexUnion (Str2Reg "ggg") (Str2Reg "hh"))) (RegexConcat (RegexStar (RegexUnion (Str2Reg "iii") (Str2Reg "j"))) (RegexConcat (RegexPlus (RegexPlus (Str2Reg "kk"))) (RegexConcat (RegexUnion (RegexStar (Str2Reg "l")) (RegexStar (Str2Reg "m"))) (RegexConcat (RegexUnion (RegexStar (Str2Reg "nn")) (RegexStar (Str2Reg "o"))) (RegexConcat (RegexStar (RegexPlus (Str2Reg "ppp"))) (RegexConcat (RegexStar (RegexStar (Str2Reg "qqq"))) (RegexConcat (RegexUnion (RegexPlus (Str2Reg "rrr")) (RegexPlus (Str2Reg "s"))) (RegexConcat (RegexPlus (RegexUnion (Str2Reg "t") (Str2Reg "u"))) (RegexConcat (RegexPlus (RegexStar (Str2Reg "vv"))) (RegexPlus (RegexStar (Str2Reg "ww")))))))))))))))))))))))))
(assert (not (RegexIn var0 (RegexConcat (RegexPlus (RegexUnion (Str2Reg "0") (Str2Reg "11"))) (RegexConcat (RegexUnion (RegexUnion (Str2Reg "2") (Str2Reg "333")) (RegexUnion (Str2Reg "4") (Str2Reg "5"))) (RegexConcat (RegexPlus (RegexStar (Str2Reg "6"))) (RegexConcat (RegexUnion (RegexPlus (Str2Reg "7")) (RegexPlus (Str2Reg "8"))) (RegexConcat (RegexStar (RegexPlus (Str2Reg "99"))) (RegexConcat (RegexPlus (RegexPlus (Str2Reg "a"))) (RegexConcat (RegexUnion (RegexUnion (Str2Reg "bb") (Str2Reg "c")) (RegexUnion (Str2Reg "ddd") (Str2Reg "ee"))) (RegexConcat (RegexStar (RegexUnion (Str2Reg "f") (Str2Reg "g"))) (RegexConcat (RegexStar (RegexUnion (Str2Reg "hhh") (Str2Reg "i"))) (RegexConcat (RegexStar (RegexPlus (Str2Reg "j"))) (RegexConcat (RegexStar (RegexPlus (Str2Reg "kkk"))) (RegexConcat (RegexStar (RegexStar (Str2Reg "l"))) (RegexConcat (RegexUnion (RegexPlus (Str2Reg "m")) (RegexPlus (Str2Reg "nnn"))) (RegexConcat (RegexUnion (RegexPlus (Str2Reg "ooo")) (RegexPlus (Str2Reg "p"))) (RegexConcat (RegexUnion (RegexStar (Str2Reg "q")) (RegexStar (Str2Reg "r"))) (RegexConcat (RegexPlus (RegexPlus (Str2Reg "s"))) (RegexConcat (RegexPlus (RegexUnion (Str2Reg "t") (Str2Reg "u"))) (RegexConcat (RegexStar (RegexStar (Str2Reg "v"))) (RegexConcat (RegexPlus (RegexPlus (Str2Reg "w"))) (RegexConcat (RegexUnion (RegexStar (Str2Reg "xx")) (RegexStar (Str2Reg "yy"))) (RegexStar (RegexPlus (Str2Reg "z"))))))))))))))))))))))))))
(check-sat)